n_res = 4;
rc = [ 26, 26, 22, 27 ];
n_tasks = 30;
d = [ 1, 5, 9, 6, 1, 8, 3, 9, 6, 7, 1, 8, 10, 2, 8, 9, 6, 10, 9, 7, 1, 7, 4, 8, 10, 1, 5, 1, 8, 8 ];
rr = [| 26, 26, 26, 26, 26, 26, 26, 26, 26, 26, 26, 26, 26, 26, 26, 26, 26, 26, 26, 26, 26, 26, 26, 26, 26, 26, 26, 26, 26, 26
      | 26, 26, 26, 26, 26, 26, 26, 26, 26, 26, 26, 26, 26, 26, 26, 26, 26, 26, 26, 26, 26, 26, 26, 26, 26, 26, 26, 26, 26, 26
      | 22, 22, 22, 22, 22, 22, 22, 22, 22, 22, 22, 22, 22, 22, 22, 22, 22, 22, 22, 22, 22, 22, 22, 22, 22, 22, 22, 22, 22, 22
      | 27, 27, 27, 27, 27, 27, 27, 27, 27, 27, 27, 27, 27, 27, 27, 27, 27, 27, 27, 27, 27, 27, 27, 27, 27, 27, 27, 27, 27, 27|];
suc = [ { 19, 26, 27 },
       { 8, 25 },
       { 4, 6, 7 },
       { 5, 9, 10 },
       { 24 },
       { 13, 14 },
       { 27 },
       { 13 },
       { 15 },
       { 11, 12 },
       { 29 },
       { 20, 28 },
       { 16 },
       { 24 },
       { 18 },
       { 17, 21, 23 },
       { 26 },
       { 22 },
       { 20, 28 },
       { 22 },
       { 22, 24 },
       { 29 },
       { 30 },
       { 27 },
       { 26 },
       { 29 },
       { 28, 30 },
       {  },
       {  },
       {  } ];
